WARNING: for repeatability, setting FPU to use double precision
============================[ Problem Statistics ]=============================
|                                                                             |
|  Number of variables:           100                                         |
|  Number of clauses:             449                                         |
|  Parse time:                   0.00 s                                       |
|  Eliminated clauses:           0.00 Mb                                      |
|  Simplification time:          0.00 s                                       |
|                                                                             |
============================[ Search Statistics ]==============================
| Conflicts |          ORIGINAL         |          LEARNT          | Progress |
|           |    Vars  Clauses Literals |    Limit  Clauses Lit/Cl |          |
===============================================================================
|       100 |      99      448     1350 |      164      100      7 |  0.010 % |
|       250 |      96      443     1335 |      180      113      5 |  3.011 % |
===============================================================================
restarts              : 3
conflicts             : 317            (104655 /sec)
decisions             : 398            (0.00 % random) (131397 /sec)
propagations          : 7011           (2314625 /sec)
conflict literals     : 1792           (21.37 % deleted)
Memory used           : 13.00 MB
CPU time              : 0.003029 s

SATISFIABLE
